1677457
0,23,60,20,2,41,11,31,55,39,4,28,59,18,48,22,5,24,29,40,63,10,65,25,54,45,33,6,66,37,42,32,56,17,9,13,51,21,30,43,52,36,61,38,50,34,67,49,27,35,58,15,62,47,1,7,14,57,8,16,26,44,64,19,3,46,12,53,0